p cnf 673 1978
7 0
13 0
19 0
25 0
31 0
14 0
20 0
26 0
32 0
21 0
27 0
33 0
28 0
34 0
35 0
-7 -14 13 0
-7 -20 19 0
-7 -26 25 0
-7 -32 31 0
-13 -9 7 0
-13 -21 19 0
-13 -27 25 0
-13 -33 31 0
-19 -10 7 0
-19 -16 13 0
-19 -28 25 0
-19 -34 31 0
-25 -11 7 0
-25 -17 13 0
-25 -23 19 0
-25 -35 31 0
-31 -12 7 0
-31 -18 13 0
-31 -24 19 0
-31 -30 25 0
-2 -13 14 0
-2 -19 20 0
-2 -25 26 0
-2 -31 32 0
-14 -3 2 0
-14 -21 20 0
-14 -27 26 0
-14 -33 32 0
-20 -4 2 0
-20 -16 14 0
-20 -28 26 0
-20 -34 32 0
-26 -5 2 0
-26 -17 14 0
-26 -23 20 0
-26 -35 32 0
-32 -6 2 0
-32 -18 14 0
-32 -24 20 0
-32 -30 26 0
-3 -7 9 0
-3 -19 21 0
-3 -25 27 0
-3 -31 33 0
-9 -2 3 0
-9 -20 21 0
-9 -26 27 0
-9 -32 33 0
-21 -4 3 0
-21 -10 9 0
-21 -28 27 0
-21 -34 33 0
-27 -5 3 0
-27 -11 9 0
-27 -23 21 0
-27 -35 33 0
-33 -6 3 0
-33 -12 9 0
-33 -24 21 0
-33 -30 27 0
-4 -7 10 0
-4 -13 16 0
-4 -25 28 0
-4 -31 34 0
-10 -2 4 0
-10 -14 16 0
-10 -26 28 0
-10 -32 34 0
-16 -3 4 0
-16 -9 10 0
-16 -27 28 0
-16 -33 34 0
-28 -5 4 0
-28 -11 10 0
-28 -17 16 0
-28 -35 34 0
-34 -6 4 0
-34 -12 10 0
-34 -18 16 0
-34 -30 28 0
-5 -7 11 0
-5 -13 17 0
-5 -19 23 0
-5 -31 35 0
-11 -2 5 0
-11 -14 17 0
-11 -20 23 0
-11 -32 35 0
-17 -3 5 0
-17 -9 11 0
-17 -21 23 0
-17 -33 35 0
-23 -4 5 0
-23 -10 11 0
-23 -16 17 0
-23 -34 35 0
-35 -6 5 0
-35 -12 11 0
-35 -18 17 0
-35 -24 23 0
-6 -7 12 0
-6 -13 18 0
-6 -19 24 0
-6 -25 30 0
-12 -2 6 0
-12 -14 18 0
-12 -20 24 0
-12 -26 30 0
-18 -3 6 0
-18 -9 12 0
-18 -21 24 0
-18 -27 30 0
-24 -4 6 0
-24 -10 12 0
-24 -16 18 0
-24 -28 30 0
-30 -5 6 0
-30 -11 12 0
-30 -17 18 0
-30 -23 24 0
-43 -50 49 0
-43 -56 55 0
-43 -62 61 0
-43 -68 67 0
-49 -45 43 0
-49 -57 55 0
-49 -63 61 0
-49 -69 67 0
-55 -46 43 0
-55 -52 49 0
-55 -64 61 0
-55 -70 67 0
-61 -47 43 0
-61 -53 49 0
-61 -59 55 0
-61 -71 67 0
-67 -48 43 0
-67 -54 49 0
-67 -60 55 0
-67 -66 61 0
-38 -49 50 0
-38 -55 56 0
-38 -61 62 0
-38 -67 68 0
-50 -39 38 0
-50 -57 56 0
-50 -63 62 0
-50 -69 68 0
-56 -40 38 0
-56 -52 50 0
-56 -64 62 0
-56 -70 68 0
-62 -41 38 0
-62 -53 50 0
-62 -59 56 0
-62 -71 68 0
-68 -42 38 0
-68 -54 50 0
-68 -60 56 0
-68 -66 62 0
-39 -43 45 0
-39 -55 57 0
-39 -61 63 0
-39 -67 69 0
-45 -38 39 0
-45 -56 57 0
-45 -62 63 0
-45 -68 69 0
-57 -40 39 0
-57 -46 45 0
-57 -64 63 0
-57 -70 69 0
-63 -41 39 0
-63 -47 45 0
-63 -59 57 0
-63 -71 69 0
-69 -42 39 0
-69 -48 45 0
-69 -60 57 0
-69 -66 63 0
-40 -43 46 0
-40 -49 52 0
-40 -61 64 0
-40 -67 70 0
-46 -38 40 0
-46 -50 52 0
-46 -62 64 0
-46 -68 70 0
-52 -39 40 0
-52 -45 46 0
-52 -63 64 0
-52 -69 70 0
-64 -41 40 0
-64 -47 46 0
-64 -53 52 0
-64 -71 70 0
-70 -42 40 0
-70 -48 46 0
-70 -54 52 0
-70 -66 64 0
-41 -43 47 0
-41 -49 53 0
-41 -55 59 0
-41 -67 71 0
-47 -38 41 0
-47 -50 53 0
-47 -56 59 0
-47 -68 71 0
-53 -39 41 0
-53 -45 47 0
-53 -57 59 0
-53 -69 71 0
-59 -40 41 0
-59 -46 47 0
-59 -52 53 0
-59 -70 71 0
-71 -42 41 0
-71 -48 47 0
-71 -54 53 0
-71 -60 59 0
-42 -43 48 0
-42 -49 54 0
-42 -55 60 0
-42 -61 66 0
-48 -38 42 0
-48 -50 54 0
-48 -56 60 0
-48 -62 66 0
-54 -39 42 0
-54 -45 48 0
-54 -57 60 0
-54 -63 66 0
-60 -40 42 0
-60 -46 48 0
-60 -52 54 0
-60 -64 66 0
-66 -41 42 0
-66 -47 48 0
-66 -53 54 0
-66 -59 60 0
-79 -86 85 0
-79 -92 91 0
-79 -98 97 0
-79 -104 103 0
-85 -81 79 0
-85 -93 91 0
-85 -99 97 0
-85 -105 103 0
-91 -82 79 0
-91 -88 85 0
-91 -100 97 0
-91 -106 103 0
-97 -83 79 0
-97 -89 85 0
-97 -95 91 0
-97 -107 103 0
-103 -84 79 0
-103 -90 85 0
-103 -96 91 0
-103 -102 97 0
-74 -85 86 0
-74 -91 92 0
-74 -97 98 0
-74 -103 104 0
-86 -75 74 0
-86 -93 92 0
-86 -99 98 0
-86 -105 104 0
-92 -76 74 0
-92 -88 86 0
-92 -100 98 0
-92 -106 104 0
-98 -77 74 0
-98 -89 86 0
-98 -95 92 0
-98 -107 104 0
-104 -78 74 0
-104 -90 86 0
-104 -96 92 0
-104 -102 98 0
-75 -79 81 0
-75 -91 93 0
-75 -97 99 0
-75 -103 105 0
-81 -74 75 0
-81 -92 93 0
-81 -98 99 0
-81 -104 105 0
-93 -76 75 0
-93 -82 81 0
-93 -100 99 0
-93 -106 105 0
-99 -77 75 0
-99 -83 81 0
-99 -95 93 0
-99 -107 105 0
-105 -78 75 0
-105 -84 81 0
-105 -96 93 0
-105 -102 99 0
-76 -79 82 0
-76 -85 88 0
-76 -97 100 0
-76 -103 106 0
-82 -74 76 0
-82 -86 88 0
-82 -98 100 0
-82 -104 106 0
-88 -75 76 0
-88 -81 82 0
-88 -99 100 0
-88 -105 106 0
-100 -77 76 0
-100 -83 82 0
-100 -89 88 0
-100 -107 106 0
-106 -78 76 0
-106 -84 82 0
-106 -90 88 0
-106 -102 100 0
-77 -79 83 0
-77 -85 89 0
-77 -91 95 0
-77 -103 107 0
-83 -74 77 0
-83 -86 89 0
-83 -92 95 0
-83 -104 107 0
-89 -75 77 0
-89 -81 83 0
-89 -93 95 0
-89 -105 107 0
-95 -76 77 0
-95 -82 83 0
-95 -88 89 0
-95 -106 107 0
-107 -78 77 0
-107 -84 83 0
-107 -90 89 0
-107 -96 95 0
-78 -79 84 0
-78 -85 90 0
-78 -91 96 0
-78 -97 102 0
-84 -74 78 0
-84 -86 90 0
-84 -92 96 0
-84 -98 102 0
-90 -75 78 0
-90 -81 84 0
-90 -93 96 0
-90 -99 102 0
-96 -76 78 0
-96 -82 84 0
-96 -88 90 0
-96 -100 102 0
-102 -77 78 0
-102 -83 84 0
-102 -89 90 0
-102 -95 96 0
-115 -122 121 0
-115 -128 127 0
-115 -134 133 0
-115 -140 139 0
-121 -117 115 0
-121 -129 127 0
-121 -135 133 0
-121 -141 139 0
-127 -118 115 0
-127 -124 121 0
-127 -136 133 0
-127 -142 139 0
-133 -119 115 0
-133 -125 121 0
-133 -131 127 0
-133 -143 139 0
-139 -120 115 0
-139 -126 121 0
-139 -132 127 0
-139 -138 133 0
-110 -121 122 0
-110 -127 128 0
-110 -133 134 0
-110 -139 140 0
-122 -111 110 0
-122 -129 128 0
-122 -135 134 0
-122 -141 140 0
-128 -112 110 0
-128 -124 122 0
-128 -136 134 0
-128 -142 140 0
-134 -113 110 0
-134 -125 122 0
-134 -131 128 0
-134 -143 140 0
-140 -114 110 0
-140 -126 122 0
-140 -132 128 0
-140 -138 134 0
-111 -115 117 0
-111 -127 129 0
-111 -133 135 0
-111 -139 141 0
-117 -110 111 0
-117 -128 129 0
-117 -134 135 0
-117 -140 141 0
-129 -112 111 0
-129 -118 117 0
-129 -136 135 0
-129 -142 141 0
-135 -113 111 0
-135 -119 117 0
-135 -131 129 0
-135 -143 141 0
-141 -114 111 0
-141 -120 117 0
-141 -132 129 0
-141 -138 135 0
-112 -115 118 0
-112 -121 124 0
-112 -133 136 0
-112 -139 142 0
-118 -110 112 0
-118 -122 124 0
-118 -134 136 0
-118 -140 142 0
-124 -111 112 0
-124 -117 118 0
-124 -135 136 0
-124 -141 142 0
-136 -113 112 0
-136 -119 118 0
-136 -125 124 0
-136 -143 142 0
-142 -114 112 0
-142 -120 118 0
-142 -126 124 0
-142 -138 136 0
-113 -115 119 0
-113 -121 125 0
-113 -127 131 0
-113 -139 143 0
-119 -110 113 0
-119 -122 125 0
-119 -128 131 0
-119 -140 143 0
-125 -111 113 0
-125 -117 119 0
-125 -129 131 0
-125 -141 143 0
-131 -112 113 0
-131 -118 119 0
-131 -124 125 0
-131 -142 143 0
-143 -114 113 0
-143 -120 119 0
-143 -126 125 0
-143 -132 131 0
-114 -115 120 0
-114 -121 126 0
-114 -127 132 0
-114 -133 138 0
-120 -110 114 0
-120 -122 126 0
-120 -128 132 0
-120 -134 138 0
-126 -111 114 0
-126 -117 120 0
-126 -129 132 0
-126 -135 138 0
-132 -112 114 0
-132 -118 120 0
-132 -124 126 0
-132 -136 138 0
-138 -113 114 0
-138 -119 120 0
-138 -125 126 0
-138 -131 132 0
-151 -158 157 0
-151 -164 163 0
-151 -170 169 0
-151 -176 175 0
-157 -153 151 0
-157 -165 163 0
-157 -171 169 0
-157 -177 175 0
-163 -154 151 0
-163 -160 157 0
-163 -172 169 0
-163 -178 175 0
-169 -155 151 0
-169 -161 157 0
-169 -167 163 0
-169 -179 175 0
-175 -156 151 0
-175 -162 157 0
-175 -168 163 0
-175 -174 169 0
-146 -157 158 0
-146 -163 164 0
-146 -169 170 0
-146 -175 176 0
-158 -147 146 0
-158 -165 164 0
-158 -171 170 0
-158 -177 176 0
-164 -148 146 0
-164 -160 158 0
-164 -172 170 0
-164 -178 176 0
-170 -149 146 0
-170 -161 158 0
-170 -167 164 0
-170 -179 176 0
-176 -150 146 0
-176 -162 158 0
-176 -168 164 0
-176 -174 170 0
-147 -151 153 0
-147 -163 165 0
-147 -169 171 0
-147 -175 177 0
-153 -146 147 0
-153 -164 165 0
-153 -170 171 0
-153 -176 177 0
-165 -148 147 0
-165 -154 153 0
-165 -172 171 0
-165 -178 177 0
-171 -149 147 0
-171 -155 153 0
-171 -167 165 0
-171 -179 177 0
-177 -150 147 0
-177 -156 153 0
-177 -168 165 0
-177 -174 171 0
-148 -151 154 0
-148 -157 160 0
-148 -169 172 0
-148 -175 178 0
-154 -146 148 0
-154 -158 160 0
-154 -170 172 0
-154 -176 178 0
-160 -147 148 0
-160 -153 154 0
-160 -171 172 0
-160 -177 178 0
-172 -149 148 0
-172 -155 154 0
-172 -161 160 0
-172 -179 178 0
-178 -150 148 0
-178 -156 154 0
-178 -162 160 0
-178 -174 172 0
-149 -151 155 0
-149 -157 161 0
-149 -163 167 0
-149 -175 179 0
-155 -146 149 0
-155 -158 161 0
-155 -164 167 0
-155 -176 179 0
-161 -147 149 0
-161 -153 155 0
-161 -165 167 0
-161 -177 179 0
-167 -148 149 0
-167 -154 155 0
-167 -160 161 0
-167 -178 179 0
-179 -150 149 0
-179 -156 155 0
-179 -162 161 0
-179 -168 167 0
-150 -151 156 0
-150 -157 162 0
-150 -163 168 0
-150 -169 174 0
-156 -146 150 0
-156 -158 162 0
-156 -164 168 0
-156 -170 174 0
-162 -147 150 0
-162 -153 156 0
-162 -165 168 0
-162 -171 174 0
-168 -148 150 0
-168 -154 156 0
-168 -160 162 0
-168 -172 174 0
-174 -149 150 0
-174 -155 156 0
-174 -161 162 0
-174 -167 168 0
-187 -194 193 0
-187 -200 199 0
-187 -206 205 0
-187 -212 211 0
-193 -189 187 0
-193 -201 199 0
-193 -207 205 0
-193 -213 211 0
-199 -190 187 0
-199 -196 193 0
-199 -208 205 0
-199 -214 211 0
-205 -191 187 0
-205 -197 193 0
-205 -203 199 0
-205 -215 211 0
-211 -192 187 0
-211 -198 193 0
-211 -204 199 0
-211 -210 205 0
-182 -193 194 0
-182 -199 200 0
-182 -205 206 0
-182 -211 212 0
-194 -183 182 0
-194 -201 200 0
-194 -207 206 0
-194 -213 212 0
-200 -184 182 0
-200 -196 194 0
-200 -208 206 0
-200 -214 212 0
-206 -185 182 0
-206 -197 194 0
-206 -203 200 0
-206 -215 212 0
-212 -186 182 0
-212 -198 194 0
-212 -204 200 0
-212 -210 206 0
-183 -187 189 0
-183 -199 201 0
-183 -205 207 0
-183 -211 213 0
-189 -182 183 0
-189 -200 201 0
-189 -206 207 0
-189 -212 213 0
-201 -184 183 0
-201 -190 189 0
-201 -208 207 0
-201 -214 213 0
-207 -185 183 0
-207 -191 189 0
-207 -203 201 0
-207 -215 213 0
-213 -186 183 0
-213 -192 189 0
-213 -204 201 0
-213 -210 207 0
-184 -187 190 0
-184 -193 196 0
-184 -205 208 0
-184 -211 214 0
-190 -182 184 0
-190 -194 196 0
-190 -206 208 0
-190 -212 214 0
-196 -183 184 0
-196 -189 190 0
-196 -207 208 0
-196 -213 214 0
-208 -185 184 0
-208 -191 190 0
-208 -197 196 0
-208 -215 214 0
-214 -186 184 0
-214 -192 190 0
-214 -198 196 0
-214 -210 208 0
-185 -187 191 0
-185 -193 197 0
-185 -199 203 0
-185 -211 215 0
-191 -182 185 0
-191 -194 197 0
-191 -200 203 0
-191 -212 215 0
-197 -183 185 0
-197 -189 191 0
-197 -201 203 0
-197 -213 215 0
-203 -184 185 0
-203 -190 191 0
-203 -196 197 0
-203 -214 215 0
-215 -186 185 0
-215 -192 191 0
-215 -198 197 0
-215 -204 203 0
-186 -187 192 0
-186 -193 198 0
-186 -199 204 0
-186 -205 210 0
-192 -182 186 0
-192 -194 198 0
-192 -200 204 0
-192 -206 210 0
-198 -183 186 0
-198 -189 192 0
-198 -201 204 0
-198 -207 210 0
-204 -184 186 0
-204 -190 192 0
-204 -196 198 0
-204 -208 210 0
-210 -185 186 0
-210 -191 192 0
-210 -197 198 0
-210 -203 204 0
7 2 0
-7 -2 0
13 3 0
-13 -3 0
19 4 0
-19 -4 0
25 5 0
-25 -5 0
31 6 0
-31 -6 0
2 7 0
-2 -7 0
14 9 0
-14 -9 0
20 10 0
-20 -10 0
26 11 0
-26 -11 0
32 12 0
-32 -12 0
3 13 0
-3 -13 0
9 14 0
-9 -14 0
21 16 0
-21 -16 0
27 17 0
-27 -17 0
33 18 0
-33 -18 0
4 19 0
-4 -19 0
10 20 0
-10 -20 0
16 21 0
-16 -21 0
28 23 0
-28 -23 0
34 24 0
-34 -24 0
5 25 0
-5 -25 0
11 26 0
-11 -26 0
17 27 0
-17 -27 0
23 28 0
-23 -28 0
35 30 0
-35 -30 0
6 31 0
-6 -31 0
12 32 0
-12 -32 0
18 33 0
-18 -33 0
24 34 0
-24 -34 0
30 35 0
-30 -35 0
43 38 0
-43 -38 0
49 39 0
-49 -39 0
55 40 0
-55 -40 0
61 41 0
-61 -41 0
67 42 0
-67 -42 0
38 43 0
-38 -43 0
50 45 0
-50 -45 0
56 46 0
-56 -46 0
62 47 0
-62 -47 0
68 48 0
-68 -48 0
39 49 0
-39 -49 0
45 50 0
-45 -50 0
57 52 0
-57 -52 0
63 53 0
-63 -53 0
69 54 0
-69 -54 0
40 55 0
-40 -55 0
46 56 0
-46 -56 0
52 57 0
-52 -57 0
64 59 0
-64 -59 0
70 60 0
-70 -60 0
41 61 0
-41 -61 0
47 62 0
-47 -62 0
53 63 0
-53 -63 0
59 64 0
-59 -64 0
71 66 0
-71 -66 0
42 67 0
-42 -67 0
48 68 0
-48 -68 0
54 69 0
-54 -69 0
60 70 0
-60 -70 0
66 71 0
-66 -71 0
79 74 0
-79 -74 0
85 75 0
-85 -75 0
91 76 0
-91 -76 0
97 77 0
-97 -77 0
103 78 0
-103 -78 0
74 79 0
-74 -79 0
86 81 0
-86 -81 0
92 82 0
-92 -82 0
98 83 0
-98 -83 0
104 84 0
-104 -84 0
75 85 0
-75 -85 0
81 86 0
-81 -86 0
93 88 0
-93 -88 0
99 89 0
-99 -89 0
105 90 0
-105 -90 0
76 91 0
-76 -91 0
82 92 0
-82 -92 0
88 93 0
-88 -93 0
100 95 0
-100 -95 0
106 96 0
-106 -96 0
77 97 0
-77 -97 0
83 98 0
-83 -98 0
89 99 0
-89 -99 0
95 100 0
-95 -100 0
107 102 0
-107 -102 0
78 103 0
-78 -103 0
84 104 0
-84 -104 0
90 105 0
-90 -105 0
96 106 0
-96 -106 0
102 107 0
-102 -107 0
115 110 0
-115 -110 0
121 111 0
-121 -111 0
127 112 0
-127 -112 0
133 113 0
-133 -113 0
139 114 0
-139 -114 0
110 115 0
-110 -115 0
122 117 0
-122 -117 0
128 118 0
-128 -118 0
134 119 0
-134 -119 0
140 120 0
-140 -120 0
111 121 0
-111 -121 0
117 122 0
-117 -122 0
129 124 0
-129 -124 0
135 125 0
-135 -125 0
141 126 0
-141 -126 0
112 127 0
-112 -127 0
118 128 0
-118 -128 0
124 129 0
-124 -129 0
136 131 0
-136 -131 0
142 132 0
-142 -132 0
113 133 0
-113 -133 0
119 134 0
-119 -134 0
125 135 0
-125 -135 0
131 136 0
-131 -136 0
143 138 0
-143 -138 0
114 139 0
-114 -139 0
120 140 0
-120 -140 0
126 141 0
-126 -141 0
132 142 0
-132 -142 0
138 143 0
-138 -143 0
151 146 0
-151 -146 0
157 147 0
-157 -147 0
163 148 0
-163 -148 0
169 149 0
-169 -149 0
175 150 0
-175 -150 0
146 151 0
-146 -151 0
158 153 0
-158 -153 0
164 154 0
-164 -154 0
170 155 0
-170 -155 0
176 156 0
-176 -156 0
147 157 0
-147 -157 0
153 158 0
-153 -158 0
165 160 0
-165 -160 0
171 161 0
-171 -161 0
177 162 0
-177 -162 0
148 163 0
-148 -163 0
154 164 0
-154 -164 0
160 165 0
-160 -165 0
172 167 0
-172 -167 0
178 168 0
-178 -168 0
149 169 0
-149 -169 0
155 170 0
-155 -170 0
161 171 0
-161 -171 0
167 172 0
-167 -172 0
179 174 0
-179 -174 0
150 175 0
-150 -175 0
156 176 0
-156 -176 0
162 177 0
-162 -177 0
168 178 0
-168 -178 0
174 179 0
-174 -179 0
187 182 0
-187 -182 0
193 183 0
-193 -183 0
199 184 0
-199 -184 0
205 185 0
-205 -185 0
211 186 0
-211 -186 0
182 187 0
-182 -187 0
194 189 0
-194 -189 0
200 190 0
-200 -190 0
206 191 0
-206 -191 0
212 192 0
-212 -192 0
183 193 0
-183 -193 0
189 194 0
-189 -194 0
201 196 0
-201 -196 0
207 197 0
-207 -197 0
213 198 0
-213 -198 0
184 199 0
-184 -199 0
190 200 0
-190 -200 0
196 201 0
-196 -201 0
208 203 0
-208 -203 0
214 204 0
-214 -204 0
185 205 0
-185 -205 0
191 206 0
-191 -206 0
197 207 0
-197 -207 0
203 208 0
-203 -208 0
215 210 0
-215 -210 0
186 211 0
-186 -211 0
192 212 0
-192 -212 0
198 213 0
-198 -213 0
204 214 0
-204 -214 0
210 215 0
-210 -215 0
-505 -518 0
-505 -531 0
-505 -544 0
-505 -557 0
-518 -531 0
-518 -544 0
-518 -557 0
-531 -544 0
-531 -557 0
-544 -557 0
-506 -519 0
-506 -532 0
-506 -545 0
-506 -558 0
-519 -532 0
-519 -545 0
-519 -558 0
-532 -545 0
-532 -558 0
-545 -558 0
-507 -520 0
-507 -533 0
-507 -546 0
-507 -559 0
-520 -533 0
-520 -546 0
-520 -559 0
-533 -546 0
-533 -559 0
-546 -559 0
-508 -521 0
-508 -534 0
-508 -547 0
-508 -560 0
-521 -534 0
-521 -547 0
-521 -560 0
-534 -547 0
-534 -560 0
-547 -560 0
-509 -522 0
-509 -535 0
-509 -548 0
-509 -561 0
-522 -535 0
-522 -548 0
-522 -561 0
-535 -548 0
-535 -561 0
-548 -561 0
-510 -523 0
-510 -536 0
-510 -549 0
-510 -562 0
-523 -536 0
-523 -549 0
-523 -562 0
-536 -549 0
-536 -562 0
-549 -562 0
-511 -524 0
-511 -537 0
-511 -550 0
-511 -563 0
-524 -537 0
-524 -550 0
-524 -563 0
-537 -550 0
-537 -563 0
-550 -563 0
-512 -525 0
-512 -538 0
-512 -551 0
-512 -564 0
-525 -538 0
-525 -551 0
-525 -564 0
-538 -551 0
-538 -564 0
-551 -564 0
-513 -526 0
-513 -539 0
-513 -552 0
-513 -565 0
-526 -539 0
-526 -552 0
-526 -565 0
-539 -552 0
-539 -565 0
-552 -565 0
-514 -527 0
-514 -540 0
-514 -553 0
-514 -566 0
-527 -540 0
-527 -553 0
-527 -566 0
-540 -553 0
-540 -566 0
-553 -566 0
-515 -528 0
-515 -541 0
-515 -554 0
-515 -567 0
-528 -541 0
-528 -554 0
-528 -567 0
-541 -554 0
-541 -567 0
-554 -567 0
-516 -529 0
-516 -542 0
-516 -555 0
-516 -568 0
-529 -542 0
-529 -555 0
-529 -568 0
-542 -555 0
-542 -568 0
-555 -568 0
-517 -530 0
-517 -543 0
-517 -556 0
-517 -569 0
-530 -543 0
-530 -556 0
-530 -569 0
-543 -556 0
-543 -569 0
-556 -569 0
505 518 531 544 557 0
506 519 532 545 558 0
507 520 533 546 559 0
508 521 534 547 560 0
509 522 535 548 561 0
510 523 536 549 562 0
511 524 537 550 563 0
512 525 538 551 564 0
513 526 539 552 565 0
514 527 540 553 566 0
515 528 541 554 567 0
516 529 542 555 568 0
517 530 543 556 569 0
-505 -7 -43 0
-505 7 43 0
-518 -43 -79 0
-518 43 79 0
-531 -79 -115 0
-531 79 115 0
-544 -115 -151 0
-544 115 151 0
-557 -151 -187 0
-557 151 187 0
-506 -7 -43 0
-506 7 43 0
-519 -43 -79 0
-519 43 79 0
-532 -79 -115 0
-532 79 115 0
-545 -115 -151 0
-545 115 151 0
-558 -151 -187 0
-558 151 187 0
-507 -13 -49 0
-507 13 49 0
-520 -49 -85 0
-520 49 85 0
-533 -85 -121 0
-533 85 121 0
-546 -121 -157 0
-546 121 157 0
-559 -157 -193 0
-559 157 193 0
-508 -25 -61 0
-508 25 61 0
-521 -61 -97 0
-521 61 97 0
-534 -97 -133 0
-534 97 133 0
-547 -133 -169 0
-547 133 169 0
-560 -169 -205 0
-560 169 205 0
-509 -31 -67 0
-509 31 67 0
-522 -67 -103 0
-522 67 103 0
-535 -103 -139 0
-535 103 139 0
-548 -139 -175 0
-548 139 175 0
-561 -175 -211 0
-561 175 211 0
-510 -14 -50 0
-510 14 50 0
-523 -50 -86 0
-523 50 86 0
-536 -86 -122 0
-536 86 122 0
-549 -122 -158 0
-549 122 158 0
-562 -158 -194 0
-562 158 194 0
-511 -26 -62 0
-511 26 62 0
-524 -62 -98 0
-524 62 98 0
-537 -98 -134 0
-537 98 134 0
-550 -134 -170 0
-550 134 170 0
-563 -170 -206 0
-563 170 206 0
-512 -32 -68 0
-512 32 68 0
-525 -68 -104 0
-525 68 104 0
-538 -104 -140 0
-538 104 140 0
-551 -140 -176 0
-551 140 176 0
-564 -176 -212 0
-564 176 212 0
-513 -27 -63 0
-513 27 63 0
-526 -63 -99 0
-526 63 99 0
-539 -99 -135 0
-539 99 135 0
-552 -135 -171 0
-552 135 171 0
-565 -171 -207 0
-565 171 207 0
-514 -33 -69 0
-514 33 69 0
-527 -69 -105 0
-527 69 105 0
-540 -105 -141 0
-540 105 141 0
-553 -141 -177 0
-553 141 177 0
-566 -177 -213 0
-566 177 213 0
-515 -28 -64 0
-515 28 64 0
-528 -64 -100 0
-528 64 100 0
-541 -100 -136 0
-541 100 136 0
-554 -136 -172 0
-554 136 172 0
-567 -172 -208 0
-567 172 208 0
-516 -34 -70 0
-516 34 70 0
-529 -70 -106 0
-529 70 106 0
-542 -106 -142 0
-542 106 142 0
-555 -142 -178 0
-555 142 178 0
-568 -178 -214 0
-568 178 214 0
-517 -35 -71 0
-517 35 71 0
-530 -71 -107 0
-530 71 107 0
-543 -107 -143 0
-543 107 143 0
-556 -143 -179 0
-556 143 179 0
-569 -179 -215 0
-569 179 215 0
-7 43 505 506 0
7 -43 505 506 0
-13 49 507 0
13 -49 507 0
-19 55 0
19 -55 0
-25 61 508 0
25 -61 508 0
-31 67 509 0
31 -67 509 0
-14 50 510 0
14 -50 510 0
-20 56 0
20 -56 0
-26 62 511 0
26 -62 511 0
-32 68 512 0
32 -68 512 0
-21 57 0
21 -57 0
-27 63 513 0
27 -63 513 0
-33 69 514 0
33 -69 514 0
-28 64 515 0
28 -64 515 0
-34 70 516 0
34 -70 516 0
-35 71 517 0
35 -71 517 0
-43 79 518 519 0
43 -79 518 519 0
-49 85 520 0
49 -85 520 0
-55 91 0
55 -91 0
-61 97 521 0
61 -97 521 0
-67 103 522 0
67 -103 522 0
-50 86 523 0
50 -86 523 0
-56 92 0
56 -92 0
-62 98 524 0
62 -98 524 0
-68 104 525 0
68 -104 525 0
-57 93 0
57 -93 0
-63 99 526 0
63 -99 526 0
-69 105 527 0
69 -105 527 0
-64 100 528 0
64 -100 528 0
-70 106 529 0
70 -106 529 0
-71 107 530 0
71 -107 530 0
-79 115 531 532 0
79 -115 531 532 0
-85 121 533 0
85 -121 533 0
-91 127 0
91 -127 0
-97 133 534 0
97 -133 534 0
-103 139 535 0
103 -139 535 0
-86 122 536 0
86 -122 536 0
-92 128 0
92 -128 0
-98 134 537 0
98 -134 537 0
-104 140 538 0
104 -140 538 0
-93 129 0
93 -129 0
-99 135 539 0
99 -135 539 0
-105 141 540 0
105 -141 540 0
-100 136 541 0
100 -136 541 0
-106 142 542 0
106 -142 542 0
-107 143 543 0
107 -143 543 0
-115 151 544 545 0
115 -151 544 545 0
-121 157 546 0
121 -157 546 0
-127 163 0
127 -163 0
-133 169 547 0
133 -169 547 0
-139 175 548 0
139 -175 548 0
-122 158 549 0
122 -158 549 0
-128 164 0
128 -164 0
-134 170 550 0
134 -170 550 0
-140 176 551 0
140 -176 551 0
-129 165 0
129 -165 0
-135 171 552 0
135 -171 552 0
-141 177 553 0
141 -177 553 0
-136 172 554 0
136 -172 554 0
-142 178 555 0
142 -178 555 0
-143 179 556 0
143 -179 556 0
-151 187 557 558 0
151 -187 557 558 0
-157 193 559 0
157 -193 559 0
-163 199 0
163 -199 0
-169 205 560 0
169 -205 560 0
-175 211 561 0
175 -211 561 0
-158 194 562 0
158 -194 562 0
-164 200 0
164 -200 0
-170 206 563 0
170 -206 563 0
-176 212 564 0
176 -212 564 0
-165 201 0
165 -201 0
-171 207 565 0
171 -207 565 0
-177 213 566 0
177 -213 566 0
-172 208 567 0
172 -208 567 0
-178 214 568 0
178 -214 568 0
-179 215 569 0
179 -215 569 0
-505 -506 0
-505 -507 0
-505 -508 0
-505 -509 0
-505 -510 0
-505 -511 0
-505 -512 0
-506 -505 0
-506 -507 0
-506 -508 0
-506 -509 0
-506 -510 0
-506 -511 0
-506 -512 0
-507 -505 0
-507 -506 0
-507 -508 0
-507 -509 0
-507 -510 0
-507 -513 0
-507 -514 0
-508 -505 0
-508 -506 0
-508 -507 0
-508 -509 0
-508 -511 0
-508 -513 0
-508 -515 0
-508 -517 0
-509 -505 0
-509 -506 0
-509 -507 0
-509 -508 0
-509 -512 0
-509 -514 0
-509 -516 0
-509 -517 0
-510 -505 0
-510 -506 0
-510 -507 0
-510 -511 0
-510 -512 0
-510 -513 0
-510 -514 0
-511 -505 0
-511 -506 0
-511 -508 0
-511 -510 0
-511 -512 0
-511 -513 0
-511 -515 0
-511 -517 0
-512 -505 0
-512 -506 0
-512 -509 0
-512 -510 0
-512 -511 0
-512 -514 0
-512 -516 0
-512 -517 0
-513 -507 0
-513 -508 0
-513 -510 0
-513 -511 0
-513 -514 0
-513 -515 0
-513 -517 0
-514 -507 0
-514 -509 0
-514 -510 0
-514 -512 0
-514 -513 0
-514 -516 0
-514 -517 0
-515 -508 0
-515 -511 0
-515 -513 0
-515 -516 0
-515 -517 0
-516 -509 0
-516 -512 0
-516 -514 0
-516 -515 0
-516 -517 0
-517 -508 0
-517 -509 0
-517 -511 0
-517 -512 0
-517 -513 0
-517 -514 0
-517 -515 0
-517 -516 0
-518 -519 0
-518 -520 0
-518 -521 0
-518 -522 0
-518 -523 0
-518 -524 0
-518 -525 0
-519 -518 0
-519 -520 0
-519 -521 0
-519 -522 0
-519 -523 0
-519 -524 0
-519 -525 0
-520 -518 0
-520 -519 0
-520 -521 0
-520 -522 0
-520 -523 0
-520 -526 0
-520 -527 0
-521 -518 0
-521 -519 0
-521 -520 0
-521 -522 0
-521 -524 0
-521 -526 0
-521 -528 0
-521 -530 0
-522 -518 0
-522 -519 0
-522 -520 0
-522 -521 0
-522 -525 0
-522 -527 0
-522 -529 0
-522 -530 0
-523 -518 0
-523 -519 0
-523 -520 0
-523 -524 0
-523 -525 0
-523 -526 0
-523 -527 0
-524 -518 0
-524 -519 0
-524 -521 0
-524 -523 0
-524 -525 0
-524 -526 0
-524 -528 0
-524 -530 0
-525 -518 0
-525 -519 0
-525 -522 0
-525 -523 0
-525 -524 0
-525 -527 0
-525 -529 0
-525 -530 0
-526 -520 0
-526 -521 0
-526 -523 0
-526 -524 0
-526 -527 0
-526 -528 0
-526 -530 0
-527 -520 0
-527 -522 0
-527 -523 0
-527 -525 0
-527 -526 0
-527 -529 0
-527 -530 0
-528 -521 0
-528 -524 0
-528 -526 0
-528 -529 0
-528 -530 0
-529 -522 0
-529 -525 0
-529 -527 0
-529 -528 0
-529 -530 0
-530 -521 0
-530 -522 0
-530 -524 0
-530 -525 0
-530 -526 0
-530 -527 0
-530 -528 0
-530 -529 0
-531 -532 0
-531 -533 0
-531 -534 0
-531 -535 0
-531 -536 0
-531 -537 0
-531 -538 0
-532 -531 0
-532 -533 0
-532 -534 0
-532 -535 0
-532 -536 0
-532 -537 0
-532 -538 0
-533 -531 0
-533 -532 0
-533 -534 0
-533 -535 0
-533 -536 0
-533 -539 0
-533 -540 0
-534 -531 0
-534 -532 0
-534 -533 0
-534 -535 0
-534 -537 0
-534 -539 0
-534 -541 0
-534 -543 0
-535 -531 0
-535 -532 0
-535 -533 0
-535 -534 0
-535 -538 0
-535 -540 0
-535 -542 0
-535 -543 0
-536 -531 0
-536 -532 0
-536 -533 0
-536 -537 0
-536 -538 0
-536 -539 0
-536 -540 0
-537 -531 0
-537 -532 0
-537 -534 0
-537 -536 0
-537 -538 0
-537 -539 0
-537 -541 0
-537 -543 0
-538 -531 0
-538 -532 0
-538 -535 0
-538 -536 0
-538 -537 0
-538 -540 0
-538 -542 0
-538 -543 0
-539 -533 0
-539 -534 0
-539 -536 0
-539 -537 0
-539 -540 0
-539 -541 0
-539 -543 0
-540 -533 0
-540 -535 0
-540 -536 0
-540 -538 0
-540 -539 0
-540 -542 0
-540 -543 0
-541 -534 0
-541 -537 0
-541 -539 0
-541 -542 0
-541 -543 0
-542 -535 0
-542 -538 0
-542 -540 0
-542 -541 0
-542 -543 0
-543 -534 0
-543 -535 0
-543 -537 0
-543 -538 0
-543 -539 0
-543 -540 0
-543 -541 0
-543 -542 0
-544 -545 0
-544 -546 0
-544 -547 0
-544 -548 0
-544 -549 0
-544 -550 0
-544 -551 0
-545 -544 0
-545 -546 0
-545 -547 0
-545 -548 0
-545 -549 0
-545 -550 0
-545 -551 0
-546 -544 0
-546 -545 0
-546 -547 0
-546 -548 0
-546 -549 0
-546 -552 0
-546 -553 0
-547 -544 0
-547 -545 0
-547 -546 0
-547 -548 0
-547 -550 0
-547 -552 0
-547 -554 0
-547 -556 0
-548 -544 0
-548 -545 0
-548 -546 0
-548 -547 0
-548 -551 0
-548 -553 0
-548 -555 0
-548 -556 0
-549 -544 0
-549 -545 0
-549 -546 0
-549 -550 0
-549 -551 0
-549 -552 0
-549 -553 0
-550 -544 0
-550 -545 0
-550 -547 0
-550 -549 0
-550 -551 0
-550 -552 0
-550 -554 0
-550 -556 0
-551 -544 0
-551 -545 0
-551 -548 0
-551 -549 0
-551 -550 0
-551 -553 0
-551 -555 0
-551 -556 0
-552 -546 0
-552 -547 0
-552 -549 0
-552 -550 0
-552 -553 0
-552 -554 0
-552 -556 0
-553 -546 0
-553 -548 0
-553 -549 0
-553 -551 0
-553 -552 0
-553 -555 0
-553 -556 0
-554 -547 0
-554 -550 0
-554 -552 0
-554 -555 0
-554 -556 0
-555 -548 0
-555 -551 0
-555 -553 0
-555 -554 0
-555 -556 0
-556 -547 0
-556 -548 0
-556 -550 0
-556 -551 0
-556 -552 0
-556 -553 0
-556 -554 0
-556 -555 0
-557 -558 0
-557 -559 0
-557 -560 0
-557 -561 0
-557 -562 0
-557 -563 0
-557 -564 0
-558 -557 0
-558 -559 0
-558 -560 0
-558 -561 0
-558 -562 0
-558 -563 0
-558 -564 0
-559 -557 0
-559 -558 0
-559 -560 0
-559 -561 0
-559 -562 0
-559 -565 0
-559 -566 0
-560 -557 0
-560 -558 0
-560 -559 0
-560 -561 0
-560 -563 0
-560 -565 0
-560 -567 0
-560 -569 0
-561 -557 0
-561 -558 0
-561 -559 0
-561 -560 0
-561 -564 0
-561 -566 0
-561 -568 0
-561 -569 0
-562 -557 0
-562 -558 0
-562 -559 0
-562 -563 0
-562 -564 0
-562 -565 0
-562 -566 0
-563 -557 0
-563 -558 0
-563 -560 0
-563 -562 0
-563 -564 0
-563 -565 0
-563 -567 0
-563 -569 0
-564 -557 0
-564 -558 0
-564 -561 0
-564 -562 0
-564 -563 0
-564 -566 0
-564 -568 0
-564 -569 0
-565 -559 0
-565 -560 0
-565 -562 0
-565 -563 0
-565 -566 0
-565 -567 0
-565 -569 0
-566 -559 0
-566 -561 0
-566 -562 0
-566 -564 0
-566 -565 0
-566 -568 0
-566 -569 0
-567 -560 0
-567 -563 0
-567 -565 0
-567 -568 0
-567 -569 0
-568 -561 0
-568 -564 0
-568 -566 0
-568 -567 0
-568 -569 0
-569 -560 0
-569 -561 0
-569 -563 0
-569 -564 0
-569 -565 0
-569 -566 0
-569 -567 0
-569 -568 0